p edge 1108 1038
e 1 2
e 1 3
e 1 4
e 1 5
e 1 6
e 1 7
e 1 8
e 1 9
e 1 10
e 1 11
e 1 12
e 1 13
e 1 14
e 1 15
e 16 17
e 16 18
e 16 19
e 16 20
e 16 21
e 16 22
e 16 23
e 16 24
e 16 25
e 16 26
e 16 27
e 16 28
e 16 29
e 16 30
e 31 32
e 31 33
e 31 34
e 31 35
e 31 36
e 31 37
e 31 38
e 31 39
e 31 40
e 31 41
e 31 42
e 31 43
e 31 44
e 45 46
e 45 47
e 45 48
e 45 49
e 45 50
e 45 51
e 45 52
e 45 53
e 45 54
e 45 55
e 45 56
e 45 57
e 45 58
e 45 59
e 45 60
e 45 61
e 45 62
e 63 64
e 63 65
e 63 66
e 63 67
e 63 68
e 63 69
e 63 70
e 63 71
e 63 72
e 63 73
e 63 74
e 63 75
e 63 76
e 77 78
e 77 79
e 77 80
e 77 81
e 77 82
e 77 83
e 77 84
e 77 85
e 77 86
e 77 87
e 77 88
e 77 89
e 77 90
e 77 91
e 77 92
e 77 93
e 94 95
e 94 96
e 94 97
e 94 98
e 94 99
e 94 100
e 94 101
e 94 102
e 94 103
e 94 104
e 94 105
e 94 106
e 94 107
e 94 108
e 94 109
e 94 110
e 111 112
e 111 113
e 111 114
e 111 115
e 111 116
e 111 117
e 111 118
e 111 119
e 111 120
e 111 121
e 122 123
e 122 124
e 122 125
e 122 126
e 122 127
e 122 128
e 122 129
e 122 130
e 122 131
e 122 132
e 122 133
e 122 134
e 122 135
e 136 137
e 136 138
e 136 139
e 136 140
e 136 141
e 136 142
e 136 143
e 136 144
e 136 145
e 136 146
e 136 147
e 136 148
e 136 149
e 136 150
e 136 151
e 136 152
e 136 153
e 136 154
e 136 155
e 136 156
e 157 158
e 157 159
e 157 160
e 157 161
e 157 162
e 157 163
e 157 164
e 157 165
e 157 166
e 157 167
e 157 168
e 157 169
e 157 170
e 157 171
e 157 172
e 157 173
e 157 174
e 157 175
e 157 176
e 157 177
e 178 179
e 178 180
e 178 181
e 178 182
e 178 183
e 178 184
e 178 185
e 178 186
e 178 187
e 178 188
e 178 189
e 178 190
e 178 191
e 178 192
e 178 193
e 178 194
e 195 196
e 195 197
e 195 198
e 195 199
e 195 200
e 195 201
e 195 202
e 195 203
e 195 204
e 195 205
e 195 206
e 195 207
e 195 208
e 195 209
e 195 210
e 211 212
e 211 213
e 211 214
e 211 215
e 211 216
e 211 217
e 211 218
e 211 219
e 211 220
e 211 221
e 211 222
e 211 223
e 211 224
e 211 225
e 211 226
e 227 228
e 227 229
e 227 230
e 227 231
e 227 232
e 227 233
e 227 234
e 227 235
e 227 236
e 227 237
e 227 238
e 227 239
e 227 240
e 227 241
e 227 242
e 227 243
e 227 244
e 227 245
e 246 247
e 246 248
e 246 249
e 246 250
e 246 251
e 246 252
e 246 253
e 246 254
e 246 255
e 246 256
e 246 257
e 246 258
e 246 259
e 246 260
e 261 262
e 261 263
e 261 264
e 261 265
e 261 266
e 261 267
e 261 268
e 261 269
e 261 270
e 261 271
e 261 272
e 261 273
e 261 274
e 275 276
e 275 277
e 275 278
e 275 279
e 275 280
e 275 281
e 275 282
e 275 283
e 275 284
e 275 285
e 275 286
e 275 287
e 275 288
e 275 289
e 275 290
e 291 292
e 291 293
e 291 294
e 291 295
e 291 296
e 291 297
e 291 298
e 291 299
e 291 300
e 291 301
e 291 302
e 291 303
e 291 304
e 291 305
e 291 306
e 291 307
e 291 308
e 291 309
e 291 310
e 291 311
e 312 313
e 312 314
e 312 315
e 312 316
e 312 317
e 312 318
e 312 319
e 312 320
e 312 321
e 312 322
e 312 323
e 312 324
e 312 325
e 312 326
e 312 327
e 312 328
e 312 329
e 330 331
e 330 332
e 330 333
e 330 334
e 330 335
e 330 336
e 330 337
e 330 338
e 330 339
e 330 340
e 330 341
e 330 342
e 330 343
e 330 344
e 330 345
e 330 346
e 347 348
e 347 349
e 347 350
e 347 351
e 347 352
e 347 353
e 347 354
e 347 355
e 347 356
e 347 357
e 347 358
e 347 359
e 347 360
e 347 361
e 347 362
e 347 363
e 364 365
e 364 366
e 364 367
e 364 368
e 364 369
e 364 370
e 364 371
e 364 372
e 364 373
e 364 374
e 364 375
e 364 376
e 377 378
e 377 379
e 377 380
e 377 381
e 377 382
e 377 383
e 377 384
e 377 385
e 377 386
e 377 387
e 377 388
e 377 389
e 377 390
e 377 391
e 377 392
e 377 393
e 377 394
e 377 395
e 377 396
e 397 398
e 397 399
e 397 400
e 397 401
e 397 402
e 397 403
e 397 404
e 397 405
e 397 406
e 397 407
e 397 408
e 409 410
e 409 411
e 409 412
e 409 413
e 409 414
e 409 415
e 409 416
e 409 417
e 409 418
e 409 419
e 409 420
e 409 421
e 409 422
e 409 423
e 409 424
e 409 425
e 426 427
e 426 428
e 426 429
e 426 430
e 426 431
e 426 432
e 426 433
e 426 434
e 426 435
e 426 436
e 426 437
e 426 438
e 426 439
e 426 440
e 426 441
e 426 442
e 426 443
e 426 444
e 426 445
e 446 447
e 446 448
e 446 449
e 446 450
e 446 451
e 446 452
e 446 453
e 446 454
e 446 455
e 446 456
e 446 457
e 458 459
e 458 460
e 458 461
e 458 462
e 458 463
e 458 464
e 458 465
e 458 466
e 458 467
e 458 468
e 458 469
e 458 470
e 458 471
e 472 473
e 472 474
e 472 475
e 472 476
e 472 477
e 472 478
e 472 479
e 472 480
e 472 481
e 472 482
e 472 483
e 472 484
e 485 486
e 485 487
e 485 488
e 485 489
e 485 490
e 485 491
e 485 492
e 485 493
e 485 494
e 485 495
e 496 497
e 496 498
e 496 499
e 496 500
e 496 501
e 496 502
e 496 503
e 496 504
e 496 505
e 496 506
e 496 507
e 496 508
e 496 509
e 496 510
e 496 511
e 496 512
e 496 513
e 514 515
e 514 516
e 514 517
e 514 518
e 514 519
e 514 520
e 514 521
e 514 522
e 514 523
e 514 524
e 514 525
e 514 526
e 514 527
e 514 528
e 514 529
e 514 530
e 514 531
e 514 532
e 533 534
e 533 535
e 533 536
e 533 537
e 533 538
e 533 539
e 533 540
e 533 541
e 533 542
e 533 543
e 533 544
e 533 545
e 533 546
e 533 547
e 533 548
e 549 550
e 549 551
e 549 552
e 549 553
e 549 554
e 549 555
e 549 556
e 549 557
e 549 558
e 549 559
e 549 560
e 549 561
e 549 562
e 549 563
e 549 564
e 549 565
e 566 567
e 566 568
e 566 569
e 566 570
e 566 571
e 566 572
e 566 573
e 566 574
e 566 575
e 566 576
e 566 577
e 566 578
e 566 579
e 566 580
e 566 581
e 566 582
e 566 583
e 566 584
e 585 586
e 585 587
e 585 588
e 585 589
e 585 590
e 585 591
e 585 592
e 585 593
e 585 594
e 585 595
e 585 596
e 585 597
e 585 598
e 585 599
e 600 601
e 600 602
e 600 603
e 600 604
e 600 605
e 600 606
e 600 607
e 600 608
e 600 609
e 600 610
e 600 611
e 600 612
e 600 613
e 600 614
e 615 616
e 615 617
e 615 618
e 615 619
e 615 620
e 615 621
e 615 622
e 615 623
e 615 624
e 615 625
e 615 626
e 615 627
e 615 628
e 615 629
e 615 630
e 631 632
e 631 633
e 631 634
e 631 635
e 631 636
e 631 637
e 631 638
e 631 639
e 631 640
e 631 641
e 631 642
e 631 643
e 631 644
e 631 645
e 631 646
e 631 647
e 631 648
e 649 650
e 649 651
e 649 652
e 649 653
e 649 654
e 649 655
e 649 656
e 649 657
e 649 658
e 649 659
e 649 660
e 649 661
e 649 662
e 663 664
e 663 665
e 663 666
e 663 667
e 663 668
e 663 669
e 663 670
e 663 671
e 663 672
e 663 673
e 663 674
e 663 675
e 663 676
e 663 677
e 663 678
e 663 679
e 663 680
e 663 681
e 663 682
e 663 683
e 684 685
e 684 686
e 684 687
e 684 688
e 684 689
e 684 690
e 684 691
e 684 692
e 684 693
e 684 694
e 684 695
e 696 697
e 696 698
e 696 699
e 696 700
e 696 701
e 696 702
e 696 703
e 696 704
e 696 705
e 696 706
e 696 707
e 696 708
e 696 709
e 696 710
e 711 712
e 711 713
e 711 714
e 711 715
e 711 716
e 711 717
e 711 718
e 711 719
e 711 720
e 711 721
e 711 722
e 711 723
e 711 724
e 711 725
e 711 726
e 727 728
e 727 729
e 727 730
e 727 731
e 727 732
e 727 733
e 727 734
e 727 735
e 727 736
e 727 737
e 727 738
e 739 740
e 739 741
e 739 742
e 739 743
e 739 744
e 739 745
e 739 746
e 739 747
e 739 748
e 739 749
e 739 750
e 739 751
e 739 752
e 739 753
e 739 754
e 755 756
e 755 757
e 755 758
e 755 759
e 755 760
e 755 761
e 755 762
e 755 763
e 755 764
e 755 765
e 755 766
e 755 767
e 755 768
e 755 769
e 770 771
e 770 772
e 770 773
e 770 774
e 770 775
e 770 776
e 770 777
e 770 778
e 770 779
e 770 780
e 770 781
e 782 783
e 782 784
e 782 785
e 782 786
e 782 787
e 782 788
e 782 789
e 782 790
e 782 791
e 782 792
e 782 793
e 782 794
e 782 795
e 782 796
e 782 797
e 782 798
e 782 799
e 800 801
e 800 802
e 800 803
e 800 804
e 800 805
e 800 806
e 800 807
e 800 808
e 800 809
e 800 810
e 800 811
e 800 812
e 800 813
e 800 814
e 800 815
e 800 816
e 817 818
e 817 819
e 817 820
e 817 821
e 817 822
e 817 823
e 817 824
e 817 825
e 817 826
e 817 827
e 817 828
e 817 829
e 817 830
e 817 831
e 817 832
e 817 833
e 817 834
e 835 836
e 835 837
e 835 838
e 835 839
e 835 840
e 835 841
e 835 842
e 835 843
e 835 844
e 835 845
e 835 846
e 835 847
e 835 848
e 835 849
e 835 850
e 835 851
e 852 853
e 852 854
e 852 855
e 852 856
e 852 857
e 852 858
e 852 859
e 852 860
e 852 861
e 852 862
e 863 864
e 863 865
e 863 866
e 863 867
e 863 868
e 863 869
e 863 870
e 863 871
e 863 872
e 863 873
e 863 874
e 863 875
e 863 876
e 863 877
e 863 878
e 879 880
e 879 881
e 879 882
e 879 883
e 879 884
e 879 885
e 879 886
e 879 887
e 879 888
e 879 889
e 879 890
e 891 892
e 891 893
e 891 894
e 891 895
e 891 896
e 891 897
e 891 898
e 891 899
e 891 900
e 891 901
e 891 902
e 891 903
e 891 904
e 905 906
e 905 907
e 905 908
e 905 909
e 905 910
e 905 911
e 905 912
e 905 913
e 905 914
e 905 915
e 905 916
e 905 917
e 905 918
e 919 920
e 919 921
e 919 922
e 919 923
e 919 924
e 919 925
e 919 926
e 919 927
e 919 928
e 919 929
e 919 930
e 931 932
e 931 933
e 931 934
e 931 935
e 931 936
e 931 937
e 931 938
e 931 939
e 931 940
e 931 941
e 931 942
e 931 943
e 931 944
e 931 945
e 931 946
e 931 947
e 931 948
e 931 949
e 931 950
e 951 952
e 951 953
e 951 954
e 951 955
e 951 956
e 951 957
e 951 958
e 951 959
e 951 960
e 951 961
e 951 962
e 951 963
e 951 964
e 965 966
e 965 967
e 965 968
e 965 969
e 965 970
e 965 971
e 965 972
e 965 973
e 965 974
e 965 975
e 965 976
e 965 977
e 965 978
e 965 979
e 980 981
e 980 982
e 980 983
e 980 984
e 980 985
e 980 986
e 980 987
e 980 988
e 980 989
e 980 990
e 980 991
e 980 992
e 980 993
e 980 994
e 980 995
e 980 996
e 980 997
e 980 998
e 980 999
e 980 1000
e 1001 1002
e 1001 1003
e 1001 1004
e 1001 1005
e 1001 1006
e 1001 1007
e 1001 1008
e 1001 1009
e 1001 1010
e 1001 1011
e 1012 1013
e 1012 1014
e 1012 1015
e 1012 1016
e 1012 1017
e 1012 1018
e 1012 1019
e 1012 1020
e 1012 1021
e 1012 1022
e 1012 1023
e 1012 1024
e 1012 1025
e 1012 1026
e 1012 1027
e 1012 1028
e 1012 1029
e 1012 1030
e 1012 1031
e 1032 1033
e 1032 1034
e 1032 1035
e 1032 1036
e 1032 1037
e 1032 1038
e 1032 1039
e 1032 1040
e 1032 1041
e 1032 1042
e 1032 1043
e 1032 1044
e 1032 1045
e 1032 1046
e 1032 1047
e 1032 1048
e 1032 1049
e 1032 1050
e 1051 1052
e 1051 1053
e 1051 1054
e 1051 1055
e 1051 1056
e 1051 1057
e 1051 1058
e 1051 1059
e 1051 1060
e 1051 1061
e 1051 1062
e 1051 1063
e 1051 1064
e 1051 1065
e 1051 1066
e 1051 1067
e 1068 1069
e 1068 1070
e 1068 1071
e 1068 1072
e 1068 1073
e 1068 1074
e 1068 1075
e 1068 1076
e 1068 1077
e 1068 1078
e 1068 1079
e 1068 1080
e 1068 1081
e 1068 1082
e 1068 1083
e 1084 1085
e 1084 1086
e 1084 1087
e 1084 1088
e 1084 1089
e 1084 1090
e 1084 1091
e 1084 1092
e 1084 1093
e 1084 1094
e 1095 1096
e 1095 1097
e 1095 1098
e 1095 1099
e 1095 1100
e 1095 1101
e 1095 1102
e 1095 1103
e 1095 1104
e 1095 1105
e 1095 1106
e 1095 1107
e 1095 1108
